(declare-const p00 Bool) 
(declare-const p01 Bool) 
(declare-const p02 Bool)
(declare-const p10 Bool) 
(declare-const p11 Bool) 
(declare-const p12 Bool)
(declare-const p20 Bool) 
(declare-const p21 Bool) 
(declare-const p22 Bool)
(declare-const p30 Bool) 
(declare-const p31 Bool) 
(declare-const p32 Bool)
; each node has exactly 1 color
(assert ((_ pbeq 1 1 1 1) p00 p01 p02))
(assert ((_ pbeq 1 1 1 1) p10 p11 p12))
(assert ((_ pbeq 1 1 1 1) p20 p21 p22))
(assert ((_ pbeq 1 1 1 1) p30 p31 p32))
; no neighbors share a color
(assert ((_ at-most 1) p00 p10 p20 p30))
(assert ((_ at-most 1) p01 p11 p21 p31))
(assert ((_ at-most 1) p02 p12 p22 p32))
(check-sat)
